NAME: tsp_278
COMMENT: Random TSP instance
TYPE: TSP
DIMENSION: 50
EDGE_WEIGHT_TYPE: EUC_2D
NODE_COORD_SECTION
1 567 376
2 675 852
3 845 562
4 21 606
5 197 809
6 432 140
7 833 650
8 535 969
9 951 577
10 109 750
11 147 124
12 735 977
13 819 431
14 983 278
15 924 102
16 102 302
17 624 822
18 474 434
19 706 586
20 872 843
21 947 904
22 224 677
23 763 978
24 278 987
25 245 398
26 617 259
27 33 389
28 503 119
29 178 534
30 804 760
31 889 423
32 448 172
33 386 402
34 294 956
35 156 218
36 289 898
37 785 715
38 705 633
39 86 926
40 534 384
41 305 993
42 767 498
43 287 851
44 373 910
45 306 553
46 896 750
47 700 891
48 374 438
49 596 978
50 669 543
